
Gurobi 6.5.2 (linux64) logging started Wed Aug 31 10:35:25 2016

Optimize a model with 21 rows, 41 columns and 85 nonzeros
Coefficient statistics:
  Matrix range    [1e+00, 2e+00]
  Objective range [1e+00, 7e+01]
  Bounds range    [1e+00, 1e+00]
  RHS range       [1e+00, 1e+00]
Found heuristic solution: objective 486
Presolve removed 10 rows and 8 columns
Presolve time: 0.00s
Presolved: 11 rows, 33 columns, 67 nonzeros
Variable types: 0 continuous, 33 integer (33 binary)

Root relaxation: objective 2.660000e+02, 15 iterations, 0.00 seconds

    Nodes    |    Current Node    |     Objective Bounds      |     Work
 Expl Unexpl |  Obj  Depth IntInf | Incumbent    BestBd   Gap | It/Node Time

     0     0  266.00000    0   10  486.00000  266.00000  45.3%     -    0s
H    0     0                     436.0000000  266.00000  39.0%     -    0s
H    0     0                     414.0000000  266.00000  35.7%     -    0s
H    0     0                     276.0000000  266.00000  3.62%     -    0s
H    0     0                     273.0000000  266.00000  2.56%     -    0s

Cutting planes:
  Gomory: 1
  Zero half: 1

Explored 0 nodes (15 simplex iterations) in 0.00 seconds
Thread count was 8 (of 8 available processors)

Optimal solution found (tolerance 1.00e-04)
Best objective 2.730000000000e+02, best bound 2.730000000000e+02, gap 0.0%
